c File: flat50_3_0.col
c
c SOURCE: Joseph Culberson (joe@cs.ualberta.ca)
c DESCRIPTION: Quasi-random coloring problem
c              generated with flatness = 0
c                             probability = 0.139
c                             known coloring = 3
c                             random seed = 1018
c              Creation Date:  Tue Jun  9 11:59:13 1998
c Maximum degree = 8 Minimum degree = 2
c p edge 50 115
c cnf created by edge2cnf
p cnf 150 545
-1 -2 0
-1 -3 0
-2 -3 0
1 2 3 0
-4 -5 0
-4 -6 0
-5 -6 0
4 5 6 0
-7 -8 0
-7 -9 0
-8 -9 0
7 8 9 0
-10 -11 0
-10 -12 0
-11 -12 0
10 11 12 0
-13 -14 0
-13 -15 0
-14 -15 0
13 14 15 0
-16 -17 0
-16 -18 0
-17 -18 0
16 17 18 0
-19 -20 0
-19 -21 0
-20 -21 0
19 20 21 0
-22 -23 0
-22 -24 0
-23 -24 0
22 23 24 0
-25 -26 0
-25 -27 0
-26 -27 0
25 26 27 0
-28 -29 0
-28 -30 0
-29 -30 0
28 29 30 0
-31 -32 0
-31 -33 0
-32 -33 0
31 32 33 0
-34 -35 0
-34 -36 0
-35 -36 0
34 35 36 0
-37 -38 0
-37 -39 0
-38 -39 0
37 38 39 0
-40 -41 0
-40 -42 0
-41 -42 0
40 41 42 0
-43 -44 0
-43 -45 0
-44 -45 0
43 44 45 0
-46 -47 0
-46 -48 0
-47 -48 0
46 47 48 0
-49 -50 0
-49 -51 0
-50 -51 0
49 50 51 0
-52 -53 0
-52 -54 0
-53 -54 0
52 53 54 0
-55 -56 0
-55 -57 0
-56 -57 0
55 56 57 0
-58 -59 0
-58 -60 0
-59 -60 0
58 59 60 0
-61 -62 0
-61 -63 0
-62 -63 0
61 62 63 0
-64 -65 0
-64 -66 0
-65 -66 0
64 65 66 0
-67 -68 0
-67 -69 0
-68 -69 0
67 68 69 0
-70 -71 0
-70 -72 0
-71 -72 0
70 71 72 0
-73 -74 0
-73 -75 0
-74 -75 0
73 74 75 0
-76 -77 0
-76 -78 0
-77 -78 0
76 77 78 0
-79 -80 0
-79 -81 0
-80 -81 0
79 80 81 0
-82 -83 0
-82 -84 0
-83 -84 0
82 83 84 0
-85 -86 0
-85 -87 0
-86 -87 0
85 86 87 0
-88 -89 0
-88 -90 0
-89 -90 0
88 89 90 0
-91 -92 0
-91 -93 0
-92 -93 0
91 92 93 0
-94 -95 0
-94 -96 0
-95 -96 0
94 95 96 0
-97 -98 0
-97 -99 0
-98 -99 0
97 98 99 0
-100 -101 0
-100 -102 0
-101 -102 0
100 101 102 0
-103 -104 0
-103 -105 0
-104 -105 0
103 104 105 0
-106 -107 0
-106 -108 0
-107 -108 0
106 107 108 0
-109 -110 0
-109 -111 0
-110 -111 0
109 110 111 0
-112 -113 0
-112 -114 0
-113 -114 0
112 113 114 0
-115 -116 0
-115 -117 0
-116 -117 0
115 116 117 0
-118 -119 0
-118 -120 0
-119 -120 0
118 119 120 0
-121 -122 0
-121 -123 0
-122 -123 0
121 122 123 0
-124 -125 0
-124 -126 0
-125 -126 0
124 125 126 0
-127 -128 0
-127 -129 0
-128 -129 0
127 128 129 0
-130 -131 0
-130 -132 0
-131 -132 0
130 131 132 0
-133 -134 0
-133 -135 0
-134 -135 0
133 134 135 0
-136 -137 0
-136 -138 0
-137 -138 0
136 137 138 0
-139 -140 0
-139 -141 0
-140 -141 0
139 140 141 0
-142 -143 0
-142 -144 0
-143 -144 0
142 143 144 0
-145 -146 0
-145 -147 0
-146 -147 0
145 146 147 0
-148 -149 0
-148 -150 0
-149 -150 0
148 149 150 0
-52 -1 0
-53 -2 0
-54 -3 0
-58 -1 0
-59 -2 0
-60 -3 0
-64 -1 0
-65 -2 0
-66 -3 0
-55 -4 0
-56 -5 0
-57 -6 0
-70 -4 0
-71 -5 0
-72 -6 0
-85 -4 0
-86 -5 0
-87 -6 0
-94 -4 0
-95 -5 0
-96 -6 0
-121 -4 0
-122 -5 0
-123 -6 0
-130 -4 0
-131 -5 0
-132 -6 0
-61 -7 0
-62 -8 0
-63 -9 0
-76 -7 0
-77 -8 0
-78 -9 0
-103 -7 0
-104 -8 0
-105 -9 0
-133 -7 0
-134 -8 0
-135 -9 0
-145 -7 0
-146 -8 0
-147 -9 0
-100 -10 0
-101 -11 0
-102 -12 0
-118 -10 0
-119 -11 0
-120 -12 0
-139 -10 0
-140 -11 0
-141 -12 0
-67 -13 0
-68 -14 0
-69 -15 0
-88 -13 0
-89 -14 0
-90 -15 0
-94 -13 0
-95 -14 0
-96 -15 0
-106 -13 0
-107 -14 0
-108 -15 0
-109 -13 0
-110 -14 0
-111 -15 0
-136 -13 0
-137 -14 0
-138 -15 0
-55 -16 0
-56 -17 0
-57 -18 0
-67 -16 0
-68 -17 0
-69 -18 0
-73 -16 0
-74 -17 0
-75 -18 0
-100 -16 0
-101 -17 0
-102 -18 0
-55 -19 0
-56 -20 0
-57 -21 0
-64 -19 0
-65 -20 0
-66 -21 0
-91 -19 0
-92 -20 0
-93 -21 0
-100 -19 0
-101 -20 0
-102 -21 0
-112 -19 0
-113 -20 0
-114 -21 0
-121 -19 0
-122 -20 0
-123 -21 0
-124 -19 0
-125 -20 0
-126 -21 0
-142 -19 0
-143 -20 0
-144 -21 0
-70 -22 0
-71 -23 0
-72 -24 0
-109 -22 0
-110 -23 0
-111 -24 0
-127 -22 0
-128 -23 0
-129 -24 0
-130 -22 0
-131 -23 0
-132 -24 0
-133 -22 0
-134 -23 0
-135 -24 0
-58 -25 0
-59 -26 0
-60 -27 0
-91 -25 0
-92 -26 0
-93 -27 0
-106 -25 0
-107 -26 0
-108 -27 0
-58 -28 0
-59 -29 0
-60 -30 0
-88 -28 0
-89 -29 0
-90 -30 0
-139 -28 0
-140 -29 0
-141 -30 0
-148 -28 0
-149 -29 0
-150 -30 0
-79 -31 0
-80 -32 0
-81 -33 0
-100 -31 0
-101 -32 0
-102 -33 0
-121 -31 0
-122 -32 0
-123 -33 0
-130 -31 0
-131 -32 0
-132 -33 0
-136 -31 0
-137 -32 0
-138 -33 0
-67 -34 0
-68 -35 0
-69 -36 0
-91 -34 0
-92 -35 0
-93 -36 0
-127 -34 0
-128 -35 0
-129 -36 0
-136 -34 0
-137 -35 0
-138 -36 0
-52 -37 0
-53 -38 0
-54 -39 0
-67 -37 0
-68 -38 0
-69 -39 0
-130 -37 0
-131 -38 0
-132 -39 0
-142 -37 0
-143 -38 0
-144 -39 0
-148 -37 0
-149 -38 0
-150 -39 0
-118 -40 0
-119 -41 0
-120 -42 0
-121 -40 0
-122 -41 0
-123 -42 0
-124 -40 0
-125 -41 0
-126 -42 0
-70 -43 0
-71 -44 0
-72 -45 0
-139 -43 0
-140 -44 0
-141 -45 0
-76 -46 0
-77 -47 0
-78 -48 0
-82 -46 0
-83 -47 0
-84 -48 0
-88 -46 0
-89 -47 0
-90 -48 0
-118 -46 0
-119 -47 0
-120 -48 0
-142 -46 0
-143 -47 0
-144 -48 0
-61 -49 0
-62 -50 0
-63 -51 0
-70 -49 0
-71 -50 0
-72 -51 0
-76 -49 0
-77 -50 0
-78 -51 0
-88 -49 0
-89 -50 0
-90 -51 0
-109 -49 0
-110 -50 0
-111 -51 0
-112 -49 0
-113 -50 0
-114 -51 0
-109 -52 0
-110 -53 0
-111 -54 0
-112 -52 0
-113 -53 0
-114 -54 0
-118 -55 0
-119 -56 0
-120 -57 0
-139 -55 0
-140 -56 0
-141 -57 0
-145 -55 0
-146 -56 0
-147 -57 0
-106 -58 0
-107 -59 0
-108 -60 0
-118 -61 0
-119 -62 0
-120 -63 0
-115 -64 0
-116 -65 0
-117 -66 0
-121 -64 0
-122 -65 0
-123 -66 0
-139 -64 0
-140 -65 0
-141 -66 0
-145 -64 0
-146 -65 0
-147 -66 0
-127 -67 0
-128 -68 0
-129 -69 0
-112 -70 0
-113 -71 0
-114 -72 0
-121 -70 0
-122 -71 0
-123 -72 0
-124 -70 0
-125 -71 0
-126 -72 0
-148 -70 0
-149 -71 0
-150 -72 0
-112 -73 0
-113 -74 0
-114 -75 0
-124 -73 0
-125 -74 0
-126 -75 0
-130 -73 0
-131 -74 0
-132 -75 0
-133 -73 0
-134 -74 0
-135 -75 0
-115 -76 0
-116 -77 0
-117 -78 0
-136 -76 0
-137 -77 0
-138 -78 0
-136 -79 0
-137 -80 0
-138 -81 0
-148 -79 0
-149 -80 0
-150 -81 0
-118 -82 0
-119 -83 0
-120 -84 0
-127 -82 0
-128 -83 0
-129 -84 0
-136 -82 0
-137 -83 0
-138 -84 0
-115 -85 0
-116 -86 0
-117 -87 0
-124 -85 0
-125 -86 0
-126 -87 0
-136 -85 0
-137 -86 0
-138 -87 0
-145 -85 0
-146 -86 0
-147 -87 0
-103 -88 0
-104 -89 0
-105 -90 0
-112 -91 0
-113 -92 0
-114 -93 0
-118 -91 0
-119 -92 0
-120 -93 0
-130 -94 0
-131 -95 0
-132 -96 0
-121 -97 0
-122 -98 0
-123 -99 0
-127 -97 0
-128 -98 0
-129 -99 0
-145 -100 0
-146 -101 0
-147 -102 0
